
[MultiBuffValue]	MultiBuffID	Order	ForceID	ForceValue	Limit_Value	ValueType
0	1	0	117	450	0	1
1	2	0	117	150	0	1
2	3	0	9	5	0	2
3	3	1	8	10	0	2
4	4	0	3	30	0	1
5	4	1	30	5	0	2
6	4	2	5	30	0	1
7	5	0	4	30	0	1
8	5	1	32	5	0	2
9	5	2	5	30	0	1
10	6	0	99	30	0	2
11	6	1	101	30	0	2
12	6	2	102	30	0	2
13	6	3	103	30	0	2
14	6	4	98	30	0	2
15	7	0	99	100	0	2
16	7	1	101	100	0	2
17	7	2	102	100	0	2
18	7	3	103	100	0	2
19	8	0	6	200	0	1
20	9	0	6	600	0	1
21	10	0	6	1200	0	1
22	11	0	6	2400	0	1
23	12	0	7	100	0	1
24	13	0	7	300	0	1
25	14	0	7	600	0	1
26	15	0	7	1200	0	1
27	16	0	1	400	0	1
28	17	0	1	700	0	1
29	18	0	1	1000	0	1
30	19	0	1	1500	0	1
31	20	0	3	15	0	1
32	21	0	3	30	0	1
33	22	0	3	45	0	1
34	23	0	3	75	0	1
35	24	0	4	15	0	1
36	25	0	4	30	0	1
37	26	0	4	45	0	1
38	27	0	4	75	0	1
39	28	0	37	6	0	1
40	29	0	37	8	0	1
41	30	0	37	12	0	1
42	31	0	37	20	0	1
43	32	0	5	15	0	1
44	33	0	5	30	0	1
45	34	0	5	45	0	1
46	35	0	5	75	0	1
47	36	0	39	20	0	1
48	37	0	39	30	0	1
49	38	0	39	50	0	1
50	39	0	39	100	0	1
51	40	0	30	4	0	2
52	41	0	30	7	0	2
53	42	0	30	10	0	2
54	43	0	30	15	0	2
55	44	0	32	4	0	2
56	45	0	32	7	0	2
57	46	0	32	10	0	2
58	47	0	32	15	0	2
59	48	0	36	3000	0	1
60	49	0	36	5000	0	1
61	50	0	36	7000	0	1
62	51	0	36	9000	0	1
63	52	0	43	10	0	2
64	53	0	43	20	0	2
65	54	0	43	30	0	2
66	55	0	43	50	0	2
67	56	0	1	350	0	1
68	57	0	1	400	0	1
69	58	0	1	450	0	1
70	59	0	1	500	0	1
71	60	0	1	550	0	1
72	61	0	1	600	0	1
73	62	0	1	650	0	1
74	63	0	5	35	0	1
75	64	0	5	40	0	1
76	65	0	5	45	0	1
77	66	0	5	50	0	1
78	67	0	5	55	0	1
79	68	0	5	60	0	1
80	69	0	5	65	0	1
81	70	0	5	70	0	1
82	71	0	1	35	0	1
83	72	0	3	5	0	1
84	73	0	4	5	0	1
85	74	0	5	5	0	1
86	75	0	1	45	0	1
87	76	0	3	6	0	1
88	77	0	4	6	0	1
89	78	0	5	6	0	1
90	79	0	1	60	0	1
91	80	0	3	8	0	1
92	81	0	4	8	0	1
93	82	0	5	8	0	1
94	83	0	117	2300	0	1
95	84	0	6	2400	0	1
96	85	0	7	1200	0	1
97	86	0	1	600	0	1
98	87	0	3	75	0	1
99	88	0	4	75	0	1
100	89	0	37	12	0	1
101	90	0	5	60	0	1
102	91	0	39	100	0	1
103	92	0	30	15	0	2
104	93	0	32	15	0	2
105	94	0	36	7000	0	1
106	95	0	1	70	0	1
107	95	1	5	10	0	1
108	96	0	1	200	0	1
109	96	1	5	30	0	1
110	97	0	1	350	0	1
111	97	1	5	52	0	1
112	98	0	1	500	0	1
113	98	1	5	75	0	1
114	99	0	8	3	0	2
115	99	1	9	5	0	2
116	100	0	8	6	0	2
117	100	1	9	10	0	2
118	101	0	8	9	0	2
119	101	1	9	15	0	2
120	102	0	8	12	0	2
121	102	1	9	20	0	2
122	103	0	3	15	0	1
123	103	1	4	15	0	1
124	104	0	3	45	0	1
125	104	1	4	45	0	1
126	105	0	3	75	0	1
127	105	1	4	75	0	1
128	106	0	3	150	0	1
129	106	1	4	150	0	1
130	107	0	7	100	0	1
131	107	1	6	150	0	1
132	108	0	7	200	0	1
133	108	1	6	300	0	1
134	109	0	7	300	0	1
135	109	1	6	600	0	1
136	110	0	7	500	0	1
137	110	1	6	1000	0	1
138	111	0	30	7	0	2
139	111	1	5	30	0	1
140	112	0	30	10	0	2
141	112	1	5	45	0	1
142	113	0	30	15	0	2
143	113	1	5	75	0	1
144	114	0	30	20	0	2
145	114	1	5	150	0	1
146	115	0	32	7	0	2
147	115	1	5	30	0	1
148	116	0	32	10	0	2
149	116	1	5	45	0	1
150	117	0	32	15	0	2
151	117	1	5	75	0	1
152	118	0	32	20	0	2
153	118	1	5	150	0	1
154	119	0	78	200	0	1
155	120	0	79	500	0	1
156	121	0	80	200	0	1
157	122	0	1	1	0	1
158	122	1	3	1	0	1
159	122	2	4	1	0	1
160	122	3	5	1	0	1
161	122	4	6	1	0	1
162	122	5	7	1	0	1
163	122	6	36	1	0	1
164	122	7	78	1	0	1
165	122	8	79	1	0	1
166	122	9	80	1	0	1
167	123	0	1	500	0	1
168	123	1	37	8	0	1
169	124	0	5	45	0	1
170	124	1	7	1000	0	1
171	125	0	3	60	0	1
172	125	1	30	5	0	2
173	126	0	4	60	0	1
174	126	1	32	5	0	2
175	127	0	3	75	0	1
176	127	1	30	5	0	2
177	127	2	8	10	0	2
178	128	0	4	75	0	1
179	128	1	32	5	0	2
180	128	2	8	10	0	2
181	129	0	113	40	0	1
182	129	1	114	7	0	2
183	129	2	5	40	0	1
184	130	0	9	5	0	2
185	130	1	8	14	0	2
186	131	0	113	75	0	1
187	132	0	114	15	0	2
188	133	0	117	750	0	1
189	134	0	107	50	0	2
190	134	1	77	30	0	2
191	134	2	108	50	0	2
192	134	3	142	50	0	2
193	134	4	110	10	0	2
194	134	5	76	20	0	2
195	134	6	140	50	0	2
196	134	7	1	150	0	1
197	134	8	2	150	0	1
198	134	9	113	20	0	1
199	134	10	30	5	0	2
200	134	11	32	5	0	2
201	135	0	1	500	0	1
202	135	1	5	60	0	1
203	135	2	7	1000	0	1
204	135	3	36	100	0	1
205	135	4	74	20	0	1
206	136	0	113	75	0	1
207	136	1	114	5	0	2
208	136	2	8	15	0	2
209	137	0	6	3000	0	1
210	137	1	79	1000	0	1
211	138	0	155	1000	0	1
212	138	1	156	200	0	1
213	138	2	157	150	0	1
214	139	0	153	20	0	2
215	139	1	181	150	0	1
216	139	2	219	3	0	2


